unsat
(forall ((A (_ BitVec 19))
         (B (_ BitVec 16))
         (C (_ BitVec 12))
         (D (_ BitVec 19))
         (E (_ BitVec 3))
         (F (_ BitVec 19))
         (G (_ BitVec 1))
         (H (_ BitVec 21))
         (I (_ BitVec 19))
         (J (_ BitVec 15))
         (K (_ BitVec 36))
         (L (_ BitVec 1))
         (M (_ BitVec 19))
         (N (_ BitVec 36))
         (O (_ BitVec 19))
         (P (_ BitVec 1))
         (Q (_ BitVec 1))
         (R (_ BitVec 19))
         (S (_ BitVec 57))
         (T (_ BitVec 35))
         (U (_ BitVec 1))
         (V (_ BitVec 21))
         (W (_ BitVec 48))
         (X (_ BitVec 1))
         (Y (_ BitVec 28))
         (Z (_ BitVec 19))
         (A1 (_ BitVec 1))
         (B1 (_ BitVec 21))
         (C1 (_ BitVec 35))
         (D1 (_ BitVec 1))
         (E1 (_ BitVec 1))
         (F1 (_ BitVec 8))
         (G1 (_ BitVec 15))
         (H1 (_ BitVec 28))
         (I1 (_ BitVec 19))
         (J1 (_ BitVec 19))
         (K1 (_ BitVec 19))
         (L1 (_ BitVec 19))
         (M1 (_ BitVec 19))
         (N1 (_ BitVec 19))
         (O1 (_ BitVec 28))
         (P1 (_ BitVec 1))
         (Q1 (_ BitVec 36))
         (R1 (_ BitVec 28))
         (S1 (_ BitVec 1)))
  (! (let ((a!1 ((_ extract 21 4)
                  (bvadd (concat #b0 V) (concat #b000 ((_ extract 20 2) B1)))))
           (a!2 (= ((_ extract 30 2)
                     (bvadd (concat #b0000000000 H) ((_ extract 34 4) T)))
                   #b00000000000000000000000000000)))
       (= (INV!slice!1 A
                       B
                       C
                       D
                       E
                       F
                       G
                       H
                       I
                       J
                       K
                       L
                       M
                       N
                       O
                       P
                       Q
                       R
                       S
                       T
                       U
                       V
                       W
                       X
                       Y
                       Z
                       A1
                       B1
                       C1
                       D1
                       E1
                       F1
                       G1
                       H1
                       I1
                       J1
                       K1
                       L1
                       M1
                       N1
                       O1
                       P1
                       Q1
                       R1
                       S1)
          (and (= a!1 #b000000000000000000)
               (= ((_ extract 34 6) C1) #b00000000000000000000000000000)
               a!2
               (not ((_ bit2bool 0) C))
               (not ((_ bit2bool 1) C)))))
     :weight 0))
